(set-info :smt-lib-version 2.6)
(set-logic QF_UFLRA)
(set-info :source |
MathSat group

|)
(set-info :category "random")
(set-info :status sat)
(declare-fun x0 () Real)
(declare-fun x1 () Real)
(declare-fun x2 () Real)
(declare-fun x3 () Real)
(declare-fun x4 () Real)
(declare-fun x5 () Real)
(declare-fun x6 () Real)
(declare-fun x7 () Real)
(declare-fun x8 () Real)
(declare-fun x9 () Real)
(declare-fun x10 () Real)
(declare-fun x11 () Real)
(declare-fun x12 () Real)
(declare-fun x13 () Real)
(declare-fun x14 () Real)
(declare-fun x15 () Real)
(declare-fun x16 () Real)
(declare-fun x17 () Real)
(declare-fun x18 () Real)
(declare-fun x19 () Real)
(declare-fun x20 () Real)
(declare-fun x21 () Real)
(declare-fun x22 () Real)
(declare-fun x23 () Real)
(declare-fun x24 () Real)
(declare-fun x25 () Real)
(declare-fun x26 () Real)
(declare-fun x27 () Real)
(declare-fun x28 () Real)
(declare-fun x29 () Real)
(declare-fun f0_1 (Real) Real)
(declare-fun f0_2 (Real Real) Real)
(declare-fun f0_3 (Real Real Real) Real)
(declare-fun f0_4 (Real Real Real Real) Real)
(declare-fun P0 () Bool)
(declare-fun P1 () Bool)
(declare-fun P2 () Bool)
(declare-fun P3 () Bool)
(declare-fun P4 () Bool)
(declare-fun P5 () Bool)
(declare-fun P6 () Bool)
(declare-fun P7 () Bool)
(declare-fun P8 () Bool)
(declare-fun P9 () Bool)
(declare-fun P10 () Bool)
(declare-fun P11 () Bool)
(declare-fun P12 () Bool)
(declare-fun P13 () Bool)
(declare-fun P14 () Bool)
(declare-fun P15 () Bool)
(declare-fun P16 () Bool)
(declare-fun P17 () Bool)
(declare-fun P18 () Bool)
(declare-fun P19 () Bool)
(declare-fun P20 () Bool)
(declare-fun P21 () Bool)
(declare-fun P22 () Bool)
(declare-fun P23 () Bool)
(declare-fun P24 () Bool)
(declare-fun P25 () Bool)
(declare-fun P26 () Bool)
(declare-fun P27 () Bool)
(declare-fun P28 () Bool)
(declare-fun P29 () Bool)
(assert (let ((?v_43 (<= (+ (- (* 11 x4) (* 10 x26)) (* 12 x24)) 17)) (?v_45 (<= (- (+ (* 16 x21) (* 18 x14)) (* 32 x4)) 33)) (?v_13 (* 21 x10)) (?v_126 (<= (- (+ (* 28 x27) (* 11 x10)) (* 29 x13)) 43)) (?v_37 (f0_1 x0))) (let ((?v_22 (= (f0_1 x3) ?v_37)) (?v_18 (f0_1 x17))) (let ((?v_12 (= (f0_2 x29 x26) ?v_18)) (?v_67 (= (f0_1 x23) x10)) (?v_32 (f0_1 x2))) (let ((?v_10 (= x13 ?v_32)) (?v_80 (distinct (f0_1 x29) (f0_2 x26 x3))) (?v_39 (= x8 (f0_2 x14 x2))) (?v_7 (f0_1 x14))) (let ((?v_46 (distinct ?v_7 x13)) (?v_76 (distinct x3 x9)) (?v_90 (distinct ?v_18 (f0_2 x16 x23))) (?v_99 (= (f0_1 x6) x24)) (?v_35 (= x20 (f0_1 x9))) (?v_36 (f0_2 x23 x26))) (let ((?v_3 (distinct ?v_36 (f0_2 x12 x17))) (?v_29 (f0_1 x28))) (let ((?v_6 (= ?v_29 (f0_2 x1 x20))) (?v_79 (= x14 (f0_2 x20 x10))) (?v_17 (f0_1 x24))) (let ((?v_109 (distinct (f0_2 x16 x25) ?v_17)) (?v_110 (distinct (f0_2 x4 x12) (f0_1 x13))) (?v_44 (distinct ?v_29 (f0_1 x5))) (?v_125 (= (f0_2 x26 x25) ?v_36)) (?v_21 (distinct x11 x13)) (?v_118 (= ?v_17 x12)) (?v_27 (distinct (f0_2 x7 x10) ?v_7)) (?v_66 (= (f0_1 x7) (f0_1 x19))) (?v_147 (= ?v_7 ?v_37)) (?v_20 (distinct x12 x5)) (?v_93 (distinct x1 x17)) (?v_75 (= ?v_32 x28)) (?v_54 (distinct (f0_2 x11 x17) (f0_2 x25 x1))) (?v_69 (distinct x0 (f0_2 x4 x8))) (?v_102 (= x3 x12)) (?v_34 (= x9 (f0_1 x8))) (?v_49 (not P6))) (let ((?v_9 (not ?v_21)) (?v_140 (not ?v_6)) (?v_85 (not P27)) (?v_25 (not P13)) (?v_150 (not ?v_102)) (?v_50 (not ?v_10)) (?v_153 (not ?v_39)) (?v_5 (not P25)) (?v_11 (not ?v_20)) (?v_101 (not ?v_109)) (?v_73 (not P5)) (?v_31 (not ?v_93)) (?v_24 (not P26)) (?v_108 (not ?v_80)) (?v_91 (not P17)) (?v_15 (not P22)) (?v_30 (not P18)) (?v_89 (not ?v_99)) (?v_65 (not ?v_69)) (?v_70 (not ?v_46)) (?v_55 (not ?v_22)) (?v_122 (not ?v_12)) (?v_105 (not P29)) (?v_86 (not P11)) (?v_41 (not ?v_90)) (?v_42 (not P16)) (?v_52 (not ?v_27)) (?v_64 (not ?v_44)) (?v_104 (not ?v_54)) (?v_74 (not ?v_34)) (?v_38 (not ?v_125)) (?v_61 (not ?v_147)) (?v_137 (not P12)) (?v_98 (not ?v_43)) (?v_56 (not P20)) (?v_123 (not ?v_35)) (?v_87 (not P4)) (?v_81 (not P28)) (?v_88 (not P8)) (?v_142 (not P24)) (?v_84 (not P7))) (let ((?v_155 (or ?v_52 P9)) (?v_148 (not ?v_66)) (?v_107 (not ?v_67)) (?v_116 (not ?v_79)) (?v_92 (not ?v_75)) (?v_136 (not P23)) (?v_139 (not ?v_76)) (?v_114 (not ?v_45)) (?v_111 (not ?v_110)) (?v_132 (not P3)) (?v_157 (not P9)) (?v_131 (not P1)) (?v_138 (not P14)) (?v_154 (not ?v_118)) (?v_128 (not P2)) (?v_133 (not P15)) (?v_135 (or ?v_3 ?v_74)) (?v_144 (not ?v_3)) (?v_156 (not P21)) (?v_145 (not P10)) (?v_149 (not ?v_126)) (?v_14 (< (+ (* 40 x24) (* 7 x10)) 15))) (let ((?v_23 (not ?v_14)) (?v_0 (<= (+ (- (* (- 6) x2) (* 38 x8)) (* 4 x27)) (- 25))) (?v_48 (distinct (- (+ (* (- 2) x15) (* 26 x2)) (* 20 x28)) 33))) (let ((?v_1 (not ?v_48)) (?v_127 (<= (+ (* (- 42) x3) (* 15 x24) (* 35 x14)) 40))) (let ((?v_120 (not ?v_127)) (?v_53 (< (+ (- (* (- 29) x28) (* 17 x24)) ?v_13) 15))) (let ((?v_2 (not ?v_53)) (?v_40 (not ?v_0)) (?v_152 (<= (+ (* (- 34) x11) (* 36 x27) (* 17 x3)) (- 10)))) (let ((?v_100 (not ?v_152)) (?v_4 (<= (- (- (* (- 12) x28) (* 36 x8)) (* 35 x2)) 31)) (?v_47 (<= (- (* 39 x26) (* 39 x15)) (- 3))) (?v_26 (= (- (- (* (- 23) x16) (* 27 x28)) (* 31 x4)) (- 19)))) (let ((?v_19 (not ?v_4)) (?v_28 (<= (+ (* (- 23) x17) (* 32 x13) (* 20 x3)) 37)) (?v_51 (< (+ (- (* (- 13) x12) (* 35 x8)) (* 40 x9)) 9))) (let ((?v_143 (not ?v_51)) (?v_8 (distinct (+ (- 0 (* 30 x27)) (* 6 x11)) (- 13))) (?v_16 (< (- (- (* (- 1) x22) (* 28 x21)) 0) (- 10)))) (let ((?v_113 (not ?v_8)) (?v_58 (distinct (- (+ (* (- 30) x19) (* 16 x18)) (* 2 x2)) (- 8))) (?v_57 (< (- (+ (* (- 10) x25) (* 42 x24)) ?v_13) 2))) (let ((?v_33 (not ?v_57)) (?v_115 (distinct (+ (- (* (- 9) x15) (* 40 x8)) (* 15 x2)) (- 25)))) (let ((?v_78 (not ?v_115)) (?v_68 (< (+ (* 25 x15) (* 10 x18) (* 3 x7)) (- 27))) (?v_83 (not ?v_28)) (?v_94 (< (+ (* (- 40) x2) (* 14 x10) (* 35 x26)) 16)) (?v_97 (distinct (- (- (* (- 3) x20) (* 32 x12)) (* 12 x14)) 24))) (let ((?v_151 (not ?v_97)) (?v_82 (< (- (- (* 20 x16) (* 39 x22)) (* 16 x9)) (- 28)))) (let ((?v_62 (not ?v_82)) (?v_141 (< (- (+ (* 37 x26) (* 8 x18)) (* 11 x23)) (- 18)))) (let ((?v_60 (not ?v_141)) (?v_96 (<= (+ (- (* (- 2) x21) (* 36 x16)) x27) 5)) (?v_95 (not ?v_47)) (?v_59 (<= (+ (* 24 x3) (* 33 x21) (* 40 x27)) (- 21)))) (let ((?v_63 (not ?v_59)) (?v_72 (< (+ (* (- 8) x28) (* 39 x28) (* 7 x13)) 6))) (let ((?v_77 (not ?v_72)) (?v_134 (not ?v_16)) (?v_71 (< (+ (- (* 33 x2) (* 30 x29)) (* 39 x27)) (- 41)))) (let ((?v_119 (not ?v_71)) (?v_117 (not ?v_58)) (?v_106 (<= (+ (- (* (- 21) x22) (* 18 x20)) (* 2 x26)) 19))) (let ((?v_121 (not ?v_106)) (?v_124 (<= (- (- (* 18 x26) (* 10 x5)) (* 39 x3)) (- 9))) (?v_103 (not ?v_94)) (?v_112 (not ?v_96)) (?v_130 (not ?v_26)) (?v_129 (not ?v_68))) (let ((?v_146 (not ?v_124))) (and (and (and (and (and (and (and (and (and (and (and (and (and (and (and (and (and (and (and (and (and (and (and (and (and (and (and (and (and (and (and (and (and (and (and (and (and (and (and (and (and (and (and (and (and (and (and (and (and (and (and (and (and (and (and (and (and (and (and (and (and (and (and (and (and (and (and (and (and (and (and (and (and (and (and (and (and (and (and (and (and (and (and (and (and (and (and (and (and (and (and (and (and (and (and (and (and (and (and (and (and (and (and (and (and (and (and (and (and (and (and (and (and (and (and (and (and (and (and (and (and (and (and (and (and (and (and (and (and (and (and (and (and (and (and (and (and (and (and (and (and (and (and (and (and (and (and (and (and (and (and (and (and (and (and (and (and (and (and (and (and (and (and (and (and (and (and (and (and (and (and (and (and (and (and (and (and (and (and (and (and (and (and (and (and (and (and (and (and (and (and (and (and (and (and (and (and (and (and (and (and (and (and (and (and (and (and (and (and (and (and (and (and (and (and (and (and (and (and (and (and (and (and (and (and (and (and (and (and (and (and (and (and (and (and (and (and (and (and (and (and (and (and (and (and (and (and (and (and (and (and (and (and (and (and (and (and (and (and (and (and (and (and (and (and (and (and (and (and (and (and (and (and (and (and (and (and (and (and (and (and (and (and (and (and (and (and (and (and (and (and (and (and (and (and (and (and (and (and (and (and (and (and (and (and (and (and (and (and (and (and (and (and (and (and (and (and (and (and (and (and (and (and (and (and (and (and (and (and (and (and (and (and (and (and (and (and (and (and (and (and (and (and (and (and (and (and (and (and (and (and (and (and (and (and (and (and (and (and (or (or ?v_0 ?v_1) P25) (or (or ?v_49 ?v_35) ?v_14)) (or (or ?v_9 ?v_3) ?v_66)) (or (or ?v_140 (not P19)) ?v_85)) (or (or ?v_120 ?v_25) ?v_2)) (or (or ?v_40 ?v_150) ?v_12)) (or (or ?v_1 ?v_50) ?v_43)) (or (or P14 ?v_100) ?v_4)) (or (or ?v_153 ?v_5) ?v_2)) (or (or ?v_11 ?v_47) P14)) (or (or P22 P23) ?v_3)) (or (or ?v_101 ?v_26) ?v_34)) (or (or ?v_19 ?v_27) ?v_73)) (or (or P23 ?v_31) ?v_24)) (or (or ?v_28 ?v_108) ?v_91)) (or (or P18 ?v_143) ?v_8)) (or (or ?v_15 ?v_30) P28)) (or (or P2 ?v_89) P13)) (or (or ?v_65 ?v_1) ?v_5)) (or (or ?v_16 ?v_6) P3)) (or (or ?v_70 P19) ?v_76)) (or (or P16 P25) ?v_45)) (or (or ?v_113 ?v_58) ?v_9)) (or (or ?v_10 ?v_55) ?v_11)) (or (or ?v_122 P21) P5)) (or (or ?v_33 P23) P25)) (or (or ?v_78 ?v_23) ?v_15)) (or (or ?v_105 ?v_16) ?v_118)) (or (or ?v_86 ?v_41) ?v_12)) (or (or P29 ?v_19) ?v_2)) (or (or ?v_20 ?v_21) ?v_22)) (or (or ?v_23 ?v_68) ?v_24)) (or (or ?v_42 ?v_25) ?v_26)) (or (or ?v_52 P2) ?v_83)) (or (or ?v_64 ?v_30) ?v_31)) (or (or ?v_94 ?v_104) ?v_24)) (or (or ?v_20 P18) ?v_75)) (or (or P4 ?v_0) ?v_15)) (or (or ?v_33 ?v_151) P20)) (or (or ?v_74 ?v_35) P29)) (or (or ?v_25 ?v_9) ?v_62)) (or (or ?v_38 P3) ?v_61)) (or (or ?v_38 ?v_39) ?v_40)) (or (or ?v_16 P20) P16)) (or (or ?v_41 ?v_40) P28)) (or (or ?v_21 ?v_137) ?v_42)) (or (or ?v_31 ?v_98) ?v_44)) (or (or ?v_45 ?v_60) ?v_8)) (or (or ?v_46 ?v_30) ?v_47)) (or (or ?v_56 ?v_96) ?v_35)) (or (or ?v_95 P16) ?v_123)) (or (or ?v_48 ?v_49) ?v_50)) (or (or ?v_51 ?v_44) ?v_52)) (or (or P10 ?v_41) ?v_33)) (or (or ?v_63 ?v_14) ?v_87)) (or (or ?v_53 ?v_54) ?v_81)) (or (or ?v_55 P12) ?v_88)) (or (or ?v_56 ?v_57) ?v_58)) (or (or ?v_59 ?v_53) ?v_142)) (or (or ?v_33 P2) ?v_28)) (or (or ?v_77 ?v_52) ?v_67)) (or (or ?v_60 ?v_61) ?v_62)) (or (or ?v_63 ?v_64) P26)) (or (or ?v_65 P3) ?v_84)) (or (or ?v_134 ?v_22) ?v_23)) (or ?v_155 ?v_148)) (or (or ?v_107 P1) P3)) (or (or ?v_119 ?v_68) ?v_69)) (or (or ?v_39 ?v_16) P26)) (or (or ?v_126 P14) ?v_24)) (or (or ?v_47 P24) ?v_70)) (or (or ?v_1 ?v_64) ?v_71)) (or (or ?v_70 ?v_59) ?v_72)) (or (or ?v_73 ?v_74) ?v_79)) (or (or ?v_28 ?v_117) ?v_1)) (or (or ?v_30 ?v_67) P22)) (or (or ?v_75 ?v_76) ?v_59)) (or (or ?v_77 ?v_78) ?v_116)) (or (or ?v_15 ?v_64) ?v_77)) (or (or ?v_34 ?v_26) ?v_80)) (or (or ?v_81 ?v_82) P12)) (or (or ?v_83 ?v_121) P14)) (or (or ?v_35 ?v_68) ?v_84)) (or (or P18 ?v_85) ?v_2)) (or (or P14 ?v_23) ?v_86)) (or (or P27 P15) ?v_57)) (or (or ?v_42 ?v_92) ?v_87)) (or (or ?v_88 ?v_43) ?v_64)) (or (or ?v_89 ?v_5) ?v_90)) (or (or ?v_47 ?v_79) P17)) (or (or P27 P21) ?v_91)) (or (or ?v_92 ?v_93) ?v_94)) (or (or ?v_53 ?v_95) ?v_136)) (or (or ?v_44 ?v_90) ?v_96)) (or (or ?v_124 ?v_92) ?v_87)) (or (or ?v_40 ?v_97) ?v_98)) (or (or ?v_33 P10) ?v_67)) (or (or P13 ?v_139) ?v_99)) (or (or ?v_51 ?v_66) ?v_40)) (or (or ?v_64 ?v_33) ?v_27)) (or (or P24 ?v_100) ?v_87)) (or (or ?v_101 ?v_81) P11)) (or (or ?v_114 ?v_83) ?v_4)) (or (or ?v_102 ?v_75) ?v_22)) (or (or ?v_103 ?v_91) ?v_22)) (or (or ?v_103 ?v_87) ?v_72)) (or (or ?v_78 ?v_94) ?v_112)) (or (or P20 ?v_30) ?v_97)) (or (or ?v_104 ?v_105) P4)) (or (or ?v_6 ?v_92) P21)) (or (or P20 ?v_106) ?v_82)) (or (or ?v_101 ?v_107) P26)) (or (or ?v_70 ?v_110) ?v_108)) (or (or P28 ?v_87) ?v_14)) (or (or ?v_85 ?v_86) ?v_109)) (or (or ?v_14 ?v_73) ?v_61)) (or (or ?v_111 ?v_130) P25)) (or (or ?v_69 ?v_70) ?v_62)) (or (or P6 ?v_77) ?v_6)) (or (or ?v_16 ?v_132) ?v_111)) (or (or ?v_157 P11) ?v_38)) (or (or P20 ?v_8) ?v_87)) (or (or ?v_2 P14) P24)) (or (or ?v_112 ?v_80) ?v_64)) (or (or ?v_109 ?v_15) ?v_72)) (or (or P7 ?v_78) ?v_45)) (or (or ?v_102 ?v_99) P5)) (or (or ?v_72 P25) ?v_20)) (or (or ?v_72 ?v_113) ?v_83)) (or (or ?v_61 ?v_97) P1)) (or (or ?v_20 ?v_4) ?v_67)) (or (or ?v_80 P20) ?v_39)) (or (or ?v_39 ?v_3) ?v_34)) (or (or ?v_103 ?v_114) ?v_6)) (or (or ?v_115 ?v_42) P18)) (or (or ?v_67 ?v_81) ?v_116)) (or (or ?v_93 P3) ?v_131)) (or (or ?v_138 ?v_117) ?v_96)) (or (or ?v_42 ?v_24) ?v_25)) (or (or ?v_112 ?v_78) P22)) (or (or ?v_11 P29) ?v_94)) (or (or ?v_118 ?v_72) ?v_26)) (or (or P11 ?v_63) P24)) (or (or P11 P28) ?v_10)) (or (or ?v_9 ?v_79) ?v_109)) (or (or ?v_11 ?v_54) ?v_119)) (or (or ?v_0 ?v_86) ?v_26)) (or (or ?v_120 ?v_49) ?v_84)) (or (or P20 ?v_21) ?v_24)) (or (or ?v_63 ?v_116) ?v_69)) (or (or ?v_110 ?v_110) ?v_59)) (or (or P14 ?v_51) P24)) (or (or P6 ?v_23) ?v_121)) (or (or ?v_96 ?v_54) ?v_2)) (or (or ?v_66 ?v_72) P17)) (or (or ?v_68 P20) ?v_50)) (or (or ?v_154 ?v_62) P25)) (or (or ?v_69 P5) ?v_84)) (or (or ?v_71 ?v_129) ?v_102)) (or (or ?v_20 ?v_78) ?v_109)) (or (or ?v_21 ?v_75) ?v_122)) (or (or P10 ?v_20) ?v_56)) (or (or ?v_119 ?v_128) ?v_1)) (or (or ?v_74 ?v_123) ?v_95)) (or (or ?v_42 ?v_124) ?v_125)) (or (or ?v_2 ?v_92) P6)) (or (or P18 ?v_63) ?v_101)) (or (or ?v_103 ?v_126) ?v_57)) (or (or ?v_57 ?v_127) ?v_78)) (or (or ?v_45 ?v_128) ?v_129)) (or (or ?v_42 ?v_100) ?v_12)) (or (or ?v_78 P22) ?v_130)) (or (or ?v_131 ?v_117) ?v_112)) (or (or ?v_11 ?v_22) ?v_133)) (or (or ?v_92 P8) ?v_43)) (or ?v_135 ?v_123)) (or (or P3 ?v_132) ?v_133)) (or (or P25 P9) ?v_33)) (or (or ?v_43 ?v_50) ?v_21)) (or (or ?v_100 ?v_0) P2)) (or (or ?v_134 ?v_86) ?v_4)) (or (or ?v_126 ?v_26) ?v_45)) (or (or ?v_72 ?v_10) ?v_112)) (or ?v_135 P6)) (or (or ?v_93 ?v_134) ?v_115)) (or (or P25 ?v_57) ?v_42)) (or (or ?v_27 ?v_124) ?v_84)) (or (or ?v_42 ?v_116) ?v_61)) (or (or ?v_97 ?v_130) ?v_84)) (or (or ?v_47 ?v_144) P1)) (or (or P12 ?v_115) ?v_80)) (or (or ?v_26 ?v_132) P2)) (or (or ?v_92 ?v_116) ?v_136)) (or (or ?v_8 P22) ?v_124)) (or (or ?v_137 ?v_136) ?v_105)) (or (or ?v_40 ?v_127) ?v_133)) (or (or P5 ?v_22) ?v_125)) (or (or ?v_57 ?v_138) ?v_146)) (or (or ?v_139 ?v_63) ?v_51)) (or (or ?v_156 P10) ?v_138)) (or (or ?v_140 P12) ?v_71)) (or (or ?v_99 ?v_60) ?v_94)) (or (or P19 ?v_89) ?v_25)) (or (or ?v_1 ?v_19) ?v_71)) (or (or ?v_58 ?v_129) ?v_145)) (or (or ?v_141 ?v_126) ?v_24)) (or (or ?v_9 P2) P4)) (or (or P27 ?v_58) ?v_49)) (or (or ?v_40 ?v_69) P15)) (or (or ?v_142 ?v_71) ?v_149)) (or (or ?v_143 ?v_144) ?v_104)) (or (or ?v_65 ?v_92) ?v_116)) (or (or ?v_26 ?v_73) ?v_39)) (or (or P13 ?v_79) P5)) (or (or ?v_44 ?v_22) ?v_145)) (or (or ?v_0 ?v_90) ?v_129)) (or (or ?v_137 ?v_64) ?v_145)) (or (or ?v_128 ?v_131) P14)) (or (or ?v_31 P16) ?v_65)) (or (or ?v_68 ?v_142) ?v_26)) (or (or ?v_59 ?v_115) ?v_28)) (or (or ?v_77 ?v_122) ?v_106)) (or (or P23 ?v_74) ?v_15)) (or (or ?v_95 ?v_87) ?v_146)) (or (or ?v_147 ?v_67) ?v_8)) (or (or ?v_12 ?v_146) ?v_89)) (or (or ?v_104 ?v_100) ?v_73)) (or (or ?v_119 ?v_127) ?v_114)) (or (or ?v_148 ?v_81) ?v_82)) (or (or ?v_42 ?v_74) P15)) (or (or ?v_1 ?v_143) ?v_80)) (or (or P9 P20) ?v_9)) (or (or P21 P1) ?v_60)) (or (or ?v_74 ?v_72) ?v_129)) (or (or ?v_92 ?v_42) P29)) (or (or P26 ?v_6) ?v_129)) (or (or ?v_148 ?v_140) ?v_88)) (or (or ?v_89 ?v_67) ?v_149)) (or (or ?v_3 P3) ?v_71)) (or (or ?v_71 ?v_49) ?v_103)) (or (or ?v_117 ?v_28) ?v_142)) (or (or ?v_145 ?v_150) ?v_147)) (or (or ?v_72 ?v_9) ?v_69)) (or (or ?v_71 ?v_39) ?v_12)) (or (or ?v_5 ?v_77) ?v_131)) (or (or ?v_11 ?v_86) ?v_142)) (or (or ?v_31 ?v_140) ?v_146)) (or (or ?v_122 ?v_151) ?v_52)) (or (or ?v_47 P29) ?v_137)) (or (or ?v_64 ?v_11) P23)) (or (or ?v_23 ?v_138) ?v_123)) (or (or ?v_152 ?v_112) ?v_4)) (or (or P18 ?v_96) ?v_111)) (or (or P24 P26) P6)) (or (or P6 ?v_58) ?v_153)) (or (or ?v_78 ?v_132) ?v_27)) (or (or ?v_6 ?v_87) ?v_68)) (or (or ?v_5 P20) ?v_9)) (or (or ?v_101 ?v_11) ?v_130)) (or (or P16 ?v_69) ?v_41)) (or (or ?v_78 ?v_4) ?v_1)) (or (or ?v_59 ?v_142) P10)) (or (or P19 ?v_21) ?v_28)) (or (or ?v_117 P9) ?v_15)) (or (or ?v_41 ?v_96) ?v_44)) (or (or P25 ?v_144) ?v_51)) (or (or ?v_100 ?v_146) ?v_91)) (or (or ?v_2 P26) ?v_122)) (or (or P15 ?v_66) P2)) (or (or ?v_63 ?v_91) ?v_141)) (or (or ?v_45 ?v_3) ?v_48)) (or (or ?v_54 ?v_87) ?v_47)) (or (or ?v_115 ?v_92) P18)) (or (or ?v_6 ?v_47) ?v_139)) (or (or ?v_26 ?v_84) ?v_41)) (or (or ?v_144 ?v_84) ?v_16)) (or (or ?v_104 ?v_4) ?v_82)) (or (or ?v_0 ?v_105) ?v_71)) (or (or ?v_103 ?v_150) ?v_26)) (or (or ?v_142 ?v_79) ?v_65)) (or (or ?v_52 ?v_150) P25)) (or (or ?v_42 ?v_125) ?v_57)) (or (or ?v_125 ?v_118) P2)) (or (or ?v_154 ?v_103) ?v_98)) (or (or ?v_41 ?v_22) P19)) (or (or ?v_53 ?v_147) ?v_70)) (or (or ?v_66 ?v_71) ?v_27)) (or (or ?v_66 ?v_91) P13)) (or (or ?v_90 P2) ?v_56)) (or (or ?v_122 ?v_70) ?v_54)) (or (or ?v_78 ?v_47) ?v_46)) (or (or ?v_145 ?v_123) P1)) (or (or ?v_119 ?v_132) ?v_87)) (or (or ?v_51 P27) ?v_58)) (or (or ?v_87 ?v_78) ?v_58)) (or (or ?v_110 ?v_64) ?v_128)) (or (or ?v_43 ?v_38) ?v_124)) (or (or P22 ?v_117) ?v_131)) (or (or P16 ?v_123) ?v_12)) (or (or ?v_24 P15) ?v_51)) (or (or ?v_28 ?v_101) ?v_128)) (or (or P19 ?v_121) ?v_117)) (or (or ?v_120 ?v_60) ?v_73)) (or (or ?v_91 ?v_151) ?v_94)) (or (or ?v_39 ?v_77) ?v_103)) (or (or ?v_154 P19) ?v_133)) (or (or ?v_98 ?v_151) ?v_74)) (or (or ?v_154 ?v_80) ?v_3)) (or (or P21 P25) ?v_41)) (or (or ?v_86 ?v_106) ?v_91)) (or ?v_155 ?v_30)) (or (or ?v_156 ?v_20) ?v_112)) (or (or P4 ?v_98) P27)) (or (or ?v_147 ?v_131) ?v_41)) (or (or ?v_26 ?v_45) ?v_22)) (or (or ?v_111 ?v_142) ?v_75)) (or (or ?v_131 P13) ?v_148)) (or (or ?v_50 ?v_110) ?v_114)) (or (or ?v_85 P10) ?v_109)) (or (or ?v_51 ?v_140) ?v_35)) (or (or ?v_75 ?v_65) ?v_2)) (or (or ?v_26 P15) ?v_75)) (or (or ?v_113 ?v_6) ?v_91)) (or (or ?v_73 P26) ?v_92)) (or (or ?v_98 ?v_60) ?v_121)) (or (or ?v_147 ?v_143) ?v_77)) (or (or ?v_6 ?v_150) ?v_53)) (or (or ?v_142 ?v_85) ?v_136)) (or (or ?v_105 ?v_152) ?v_20)) (or (or ?v_117 ?v_97) ?v_44)) (or (or P4 ?v_85) ?v_157)) (or (or ?v_105 P5) ?v_157)) (or (or ?v_119 ?v_103) ?v_60)) (or (or ?v_91 ?v_12) P6)) (or (or ?v_27 P8) ?v_38)) (or (or ?v_62 ?v_16) ?v_122)) (or (or ?v_9 ?v_76) ?v_89)) (or (or ?v_73 ?v_14) ?v_133)) (or (or ?v_116 ?v_142) ?v_129)) (or (or ?v_51 ?v_10) ?v_118)) (or (or ?v_85 ?v_91) ?v_153)) (or (or P18 ?v_153) ?v_9)) (or (or ?v_27 ?v_53) P5)) (or (or ?v_75 ?v_71) ?v_15)) (or (or ?v_138 ?v_33) ?v_59)) (or (or ?v_58 ?v_21) ?v_22)) (or (or P29 ?v_0) P23)) (or (or ?v_54 ?v_147) ?v_114)) (or (or ?v_33 ?v_22) ?v_99)) (or (or P1 ?v_113) ?v_76)) (or (or ?v_87 ?v_131) ?v_143)) (or (or ?v_24 ?v_110) ?v_64)) (or (or ?v_22 ?v_78) ?v_34)) (or (or ?v_54 ?v_50) ?v_52)) (or (or ?v_25 ?v_53) ?v_92)) (or (or ?v_66 ?v_96) P22)) (or (or P20 ?v_145) ?v_90)) (or (or ?v_72 ?v_45) ?v_23)) (or (or ?v_83 ?v_149) P19)) (or (or ?v_40 ?v_30) (not P0))))))))))))))))))))))))))))))))
(check-sat)
(exit)
